webassembly/ejemplos_dzn/fails/3_unsat_f_all.dzn
TERM = { '.', 's(1)', 'local_1', 's(0)'};
null = '.';
s = 3;
n = 6;
ndeps = 0;
max_registers_sz = 4;
NR = 1;
registers = [|'local_1', 's(1)'|];
dependencies = [| |];
GET_ENUM = { GET1, GET2, GET3, GET4, GET5};
SET_ENUM = { SET1, SET2, SET3, SET4, SET5};
TEE_ENUM = { TEE1, TEE2, TEE3, TEE4, TEE5};
N = 2;
OP = { 'i32.const_0', 'i32.load16_u_2' };
in_ops = [0, 1 ];
out_ops = [1, 1 ];
in1 = ['.', 's(1)' ];
in2 = ['.', '.' ];
in3 = ['.', '.' ];
out1 = ['s(1)', 's(0)' ];
out2 = ['.', '.' ];
out3 = ['.', '.' ];
comm = [false, false ];
gas = [1, 1 ];
sz = [1, 1 ];
stor = [false, false ];
lb = [ 1, 1 ];
ub = [ 3, 3 ];
startstack = [ null, null, null, null, null, null ];
endstack = [ 's(0)', null, null, null, null, null ];
