webassembly/ejemplos_results/3_unsat_f_all.txt
value = 3;
fgas = [1, 1, 1];
fsize = [1, 1, 1];
states = 
[|    '.',    '.', '.', '.', '.', '.'
 | 's(1)', 's(1)', '.', '.', '.', '.'
 | 's(1)',    '.', '.', '.', '.', '.'
 | 's(0)',    '.', '.', '.', '.', '.'
 |];
register_states = 
[| local_1, '.', '.', '.', '.'
 | local_1, '.', '.', '.', '.'
 |  's(1)', '.', '.', '.', '.'
 |  's(1)', '.', '.', '.', '.'
 |];
program = [O('i32.const_0'), S(SET1), O('i32.load16_u_2')];
% time elapsed: 0.04 s
----------
==========
% time elapsed: 0.04 s
% [value > 2]
